\ This file has been generated by DOcplex
\ ENCODING=ISO-8859-1
\Problem name: relay4 problem

Minimize
 obj: V
Subject To
 c1: V + 201 a1_u0_x3 + 250 a1_u1_x3 + 201 a1_u2_x3 >= 0
 c2: V + 250 a1_u0_x3 + 250 a1_u1_x3 + 250 a1_u2_x3 >= 0
 c3: V + 201 a1_u0_x3 + 250 a1_u1_x3 + 201 a1_u2_x3 >= 0
 c4: a1_u0_x0 + a1_u1_x0 + a1_u2_x0 = 1
 c5: a1_u0_x1 + a1_u1_x1 + a1_u2_x1 = 1
 c6: a1_u0_x2 + a1_u1_x2 + a1_u2_x2 = 1
 c7: a1_u0_x3 + a1_u1_x3 + a1_u2_x3 = 1

Bounds
       V Free
End
